20
114
4
51
82
35
52
0 2
0 3
0 4
0 5
0 7
0 9
0 13
0 15
0 16
0 18
0 19
1 2
1 3
1 4
1 6
1 7
1 8
1 12
1 13
1 14
1 15
1 16
1 19
2 3
2 5
2 6
2 8
2 11
2 13
2 15
2 16
2 18
3 4
3 5
3 6
3 7
3 11
3 14
3 15
3 16
3 19
4 5
4 7
4 9
4 12
4 14
4 15
4 17
5 6
5 7
5 10
5 12
5 16
5 17
5 18
6 7
6 9
6 10
6 11
6 12
6 14
6 15
6 16
6 17
6 19
7 8
7 9
7 10
7 11
7 12
7 13
7 14
7 15
7 16
7 18
7 19
8 9
8 11
8 12
8 13
8 15
8 16
8 19
9 10
9 14
9 15
10 11
10 12
10 14
10 15
10 16
10 17
10 18
10 19
11 12
11 17
12 14
12 16
12 18
12 19
13 14
13 15
13 16
14 15
14 16
14 17
14 18
14 19
15 16
15 19
16 17
16 18
17 18
18 19
11 0 13 5 1
10 18 8 7 15
6 9 2 14 17
3 12 4 16 19
